# Objective value = 48
WA1n 0
WA1p 0
WA2n 1
WA2p 0
WB1n 0
WB1p 0
WB2n 0
WB2p 1
WC1n 1
WC1p 0
WD1n 0
WD1p 1
WE1n 0
WE1p 1
WF1n 0
WF1p 1
WG1n 0
WG1p 1
WH1n 0
WH1p 1
WI1n 6
WI1p 0
WI2n 1
WI2p 0
WJ1n 0
WJ1p 6
WJ2n 0
WJ2p 1
WK1n 0
WK1p 6
WK2n 0
WK2p 1
WT1n 0
WT1p 12
WT2n 0
WT2p 1
5 7
a 0
b 0
c 0
d 1
e 0
f 1
g 1
h 1
i 1
j 1
k 0
l 0
m 1
n 1
o 1
p 1
q 1
r 1
